Ir  O 
 1.0000000000000000
     4.5132730523174169    0.0000000000000000    0.0000000000000000
     0.0000000000000000    4.5132730523174169    0.0000000000000000
     0.0000000000000000    0.0000000000000000    3.1789209652480572
 Ir  O  
   2   4
Selective dynamics
Cartesian
  2.2566363376795162  2.2566363376795162  1.5894607929464537   F   F   F
  0.0000000441760025  0.0000000441760025 -0.0000001323865673   F   F   F
  3.1201910903927779  3.1201910903927779 -0.0000001323865673   F   F   F
  0.8635547968892643  3.6497178784697679  1.5894607929464537   F   F   F
  1.3930815849662546  1.3930815849662546 -0.0000001323865673   F   F   F
  3.6497178784697679  0.8635547968892643  1.5894607929464537   F   F   F
